50 8
339 747
112 828
395 738
859 655
400 798
253 695
867 263
485 619
717 574
196 211
659 255
575 436
905 321
412 676
610 145
550 396
666 254
562 321
315 730
147 442
563 232
476 214
119 350
659 173
598 220
599 436
486 809
804 404
57 794
288 561
640 285
476 883
305 260
806 585
750 647
818 342
41 917
899 278
593 931
539 737
141 925
524 932
667 184
180 290
522 802
521 604
834 372
228 325
535 429
806 707
